0 2953
1 2953
2 2953
3 2668
4 2668
5 2668
6 2668
7 2656
8 2656
9 2601
10 2601
11 2601
12 2601
13 2601
14 2601
15 2601
16 2601
17 2601
18 2601
19 2495
20 2495
21 2495
22 2495
23 2495
24 2495
25 2495
26 2495
27 2495
28 2495
29 2495
30 2495
31 2495
32 2495
33 2495
34 2495
35 2495
36 2495
37 2495
38 2495
39 2495
40 2495
41 2495
42 2495
43 2495
44 2495
45 2495
46 2495
47 2495
48 2495
49 2495
50 2492
51 2492
52 2492
53 2492
54 2369
55 2369
56 2369
57 2369
58 2369
59 2369
60 2369
61 2369
62 2369
63 2369
64 2369
65 2369
66 2369
67 2369
68 2369
69 2369
70 2369
71 2369
72 2369
73 2369
74 2369
75 2369
76 2290
77 2290
78 2290
79 2290
80 2290
81 2290
82 2290
83 2240
84 2240
85 2240
86 2240
87 2240
88 2240
89 2240
90 2240
91 2153
92 2153
93 2153
94 2153
95 2153
96 2153
97 2153
98 2153
99 2153
100 2148
101 2148
102 2148
103 2148
104 2148
105 2148
106 2148
107 2148
108 2148
109 2148
110 2148
111 2148
112 2148
113 2148
114 2148
115 2148
116 2148
117 2148
118 2148
119 2148
120 2148
121 2148
122 2148
123 2148
124 2148
125 2148
126 2148
127 2148
128 2148
129 2148
130 2148
131 2148
132 2148
133 2148
134 2148
135 2148
136 2148
137 2148
138 2132
139 2132
140 2132
141 2132
142 2113
143 2113
144 2113
145 2113
146 2113
147 2113
148 2113
149 2113
150 2113
151 2113
152 2113
153 2113
154 2113
155 2113
156 2113
157 2113
158 2113
159 2113
160 2113
161 2113
162 2113
163 2113
164 2113
165 2113
166 2113
167 2113
168 2113
169 2113
170 2113
171 2113
172 2113
173 2113
174 2113
175 2113
176 2113
177 2113
178 2113
179 2113
180 2113
181 2113
182 2113
183 2113
184 2113
185 2113
186 2113
187 2113
188 2113
189 2113
190 2113
191 2113
192 2113
193 2113
194 2113
195 2113
196 2113
197 2113
198 2113
199 2113
200 2113
201 2113
202 2113
203 2113
204 2113
205 2113
206 2113
207 2113
208 2113
209 2113
210 2113
211 2113
212 2113
213 2113
214 2113
215 2113
216 2113
217 2113
218 2113
219 2113
220 2113
221 2113
222 2113
223 2113
224 2113
225 2113
226 2113
227 2113
228 2113
229 2113
230 2113
231 2113
232 2113
233 2113
234 2113
235 2113
236 2113
237 2113
238 2113
239 2113
240 2113
241 2113
242 2113
243 2113
244 2113
245 2113
246 2113
247 2113
248 2113
249 2113
250 2113
251 2113
252 2113
253 2113
254 2113
255 2113
256 2113
257 2113
258 2113
259 2113
260 2113
261 2113
262 2113
263 2113
264 2113
265 2113
266 2113
267 2113
268 2113
269 2113
270 2113
271 2113
272 2113
273 2113
274 2113
275 2113
276 2113
277 2113
278 2113
279 2113
280 2113
281 2113
282 2043
283 2043
284 2043
285 2043
286 2043
287 2043
288 2043
289 2043
290 2043
291 2043
292 2043
293 2043
294 2043
295 2043
296 2043
297 2043
298 2043
299 2043
300 2043
301 2043
302 2043
303 2043
304 2043
305 2043
306 2043
307 2043
308 2043
309 2043
310 2043
311 2043
312 2043
313 2043
314 2043
315 2043
316 2043
317 2043
318 2043
319 2043
320 2043
321 2043
322 2043
323 2043
324 2043
325 1885
326 1885
327 1885
328 1885
329 1885
330 1885
331 1877
332 1877
333 1877
334 1877
335 1877
336 1877
337 1877
338 1877
339 1877
340 1877
341 1877
342 1877
343 1877
344 1877
345 1877
346 1877
347 1877
348 1877
349 1877
350 1877
351 1877
352 1877
353 1877
354 1877
355 1877
356 1877
357 1877
358 1877
359 1877
360 1877
361 1877
362 1877
363 1877
364 1877
365 1877
366 1877
367 1877
368 1877
369 1680
370 1680
371 1680
372 1680
373 1680
374 1680
375 1680
376 1680
377 1680
378 1680
379 1680
380 1680
381 1680
382 1680
383 1680
384 1680
385 1680
386 1680
387 1680
388 1680
389 1680
390 1680
391 1680
392 1680
393 1680
394 1680
395 1680
396 1680
397 1680
398 1680
399 1680
400 1680
401 1680
402 1680
403 1680
404 1680
405 1680
406 1648
407 1648
408 1648
409 1648
410 1648
411 1648
412 1648
413 1648
414 1648
415 1648
416 1648
417 1648
418 1648
419 1648
420 1625
421 1625
422 1625
423 1625
424 1625
425 1625
426 1625
427 1625
428 1625
429 1563
430 1563
431 1563
432 1563
433 1563
434 1563
435 1563
436 1563
437 1563
438 1563
439 1563
440 1563
441 1563
442 1563
443 1563
444 1563
445 1563
446 1563
447 1563
448 1563
449 1563
450 1563
451 1563
452 1563
453 1563
454 1563
455 1563
456 1563
457 1563
458 1563
459 1563
460 1555
461 1555
462 1555
463 1555
464 1555
465 1555
466 1555
467 1555
468 1555
469 1555
470 1555
471 1555
472 1555
473 1555
474 1555
475 1555
476 1555
477 1555
478 1555
479 1555
480 1555
481 1555
482 1555
483 1555
484 1555
485 1555
486 1555
487 1501
488 1501
489 1501
490 1501
491 1501
492 1501
493 1501
494 1501
495 1501
496 1501
497 1501
498 1501
499 1501
500 1501
501 1501
502 1501
503 1501
504 1501
505 1501
506 1501
507 1501
508 1501
509 1501
510 1501
511 1501
512 1501
513 1501
514 1501
515 1501
516 1501
517 1501
518 1501
519 1501
520 1501
521 1501
522 1501
523 1501
524 1501
525 1501
526 1501
527 1501
528 1501
529 1501
530 1501
531 1501
532 1501
533 1501
534 1501
535 1501
536 1501
537 1501
538 1501
539 1501
540 1501
541 1501
542 1501
543 1501
544 1501
545 1501
546 1501
547 1501
548 1501
549 1501
550 1501
551 1501
552 1501
553 1501
554 1501
555 1501
556 1501
557 1501
558 1501
559 1501
560 1501
561 1501
562 1501
563 1501
564 1501
565 1501
566 1501
567 1501
568 1501
569 1501
570 1501
571 1501
572 1501
573 1501
574 1501
575 1501
576 1501
577 1501
578 1501
579 1501
580 1501
581 1501
582 1501
583 1501
584 1501
585 1501
586 1501
587 1501
588 1501
589 1501
590 1501
591 1501
592 1501
593 1501
594 1497
595 1497
596 1497
597 1497
598 1497
599 1497
600 1497
601 1477
602 1456
603 1456
604 1456
605 1456
606 1433
607 1433
608 1431
609 1431
610 1431
611 1431
612 1431
613 1431
614 1431
615 1431
616 1431
617 1431
618 1431
619 1431
620 1431
621 1431
622 1431
623 1431
624 1431
625 1431
626 1431
627 1431
628 1431
629 1431
630 1431
631 1431
632 1431
633 1431
634 1431
635 1431
636 1431
637 1431
638 1431
639 1431
640 1431
641 1431
642 1431
643 1431
644 1431
645 1431
646 1431
647 1431
648 1431
649 1431
650 1431
651 1431
652 1431
653 1431
654 1431
655 1431
656 1431
657 1431
658 1431
659 1431
660 1431
661 1431
662 1431
663 1431
664 1431
665 1431
666 1431
667 1431
668 1431
669 1431
670 1431
671 1431
672 1431
673 1431
674 1431
675 1431
676 1431
677 1431
678 1431
679 1431
680 1431
681 1431
682 1431
683 1431
684 1431
685 1431
686 1431
687 1431
688 1431
689 1431
690 1431
691 1431
692 1431
693 1431
694 1431
695 1431
696 1431
697 1431
698 1431
699 1431
700 1431
701 1431
702 1431
703 1431
704 1431
705 1431
706 1430
707 1430
708 1430
709 1370
710 1370
711 1370
712 1370
713 1370
714 1370
715 1370
716 1370
717 1370
718 1370
719 1370
720 1370
721 1370
722 1370
723 1370
724 1370
725 1370
726 1370
727 1370
728 1370
729 1370
730 1370
731 1370
732 1370
733 1370
734 1370
735 1370
736 1370
737 1367
738 1367
739 1367
740 1367
741 1367
742 1367
743 1367
744 1367
745 1367
746 1367
747 1367
748 1367
749 1367
750 1367
751 1367
752 1367
753 1366
754 1366
755 1366
756 1366
757 1366
758 1366
759 1366
760 1366
761 1366
762 1355
763 1355
764 1355
765 1355
766 1355
767 1345
768 1345
769 1345
770 1345
771 1345
772 1345
773 1345
774 1345
775 1345
776 1345
777 1345
778 1345
779 1345
780 1345
781 1345
782 1345
783 1345
784 1345
785 1345
786 1345
787 1345
788 1345
789 1345
790 1300
791 1300
792 1300
793 1300
794 1300
795 1300
796 1300
797 1300
798 1300
799 1300
800 1300
801 1300
802 1300
803 1300
804 1300
805 1300
806 1300
807 1300
808 1300
809 1300
810 1300
811 1300
812 1300
813 1300
814 1300
815 1300
816 1300
817 1300
818 1300
819 1300
820 1300
821 1300
822 1300
823 1300
824 1300
825 1300
826 1300
827 1300
828 1300
829 1300
830 1300
831 1300
832 1300
833 1300
834 1300
835 1300
836 1300
837 1300
838 1300
839 1300
840 1300
841 1300
842 1300
843 1300
844 1300
845 1300
846 1300
847 1300
848 1300
849 1300
850 1300
851 1300
852 1300
853 1300
854 1300
855 1300
856 1300
857 1300
858 1300
859 1300
860 1300
861 1300
862 1300
863 1300
864 1300
865 1300
866 1300
867 1300
868 1300
869 1300
870 1300
871 1300
872 1300
873 1300
874 1300
875 1300
876 1300
877 1300
878 1300
879 1300
880 1300
881 1300
882 1300
883 1300
884 1300
885 1300
886 1300
887 1300
888 1300
889 1300
890 1300
891 1300
892 1300
893 1300
894 1300
895 1300
896 1300
897 1300
898 1300
899 1300
900 1300
901 1300
902 1300
903 1300
904 1300
905 1300
906 1300
907 1300
908 1300
909 1300
910 1300
911 1300
912 1300
913 1300
914 1300
915 1300
916 1300
917 1275
918 1275
919 1275
920 1275
921 1275
922 1275
923 1275
924 1275
925 1275
926 1275
927 1275
928 1275
929 1275
930 1275
931 1275
932 1275
933 1275
934 1275
935 1275
936 1275
937 1275
938 1275
939 1275
940 1275
941 1275
942 1275
943 1275
944 1275
945 1275
946 1275
947 1275
948 1275
949 1275
950 1275
951 1275
952 1275
953 1275
954 1275
955 1275
956 1275
957 1275
958 1275
959 1275
960 1275
961 1275
962 1275
963 1275
964 1275
965 1275
966 1275
967 1275
968 1275
969 1275
970 1275
971 1275
972 1275
973 1275
974 1275
975 1275
976 1275
977 1275
978 1275
979 1275
980 1275
981 1275
982 1275
983 1275
984 1275
985 1275
986 1275
987 1275
988 1275
989 1275
990 1275
991 1275
992 1275
993 1275
994 1275
995 1275
996 1275
997 1275
998 1275
999 1275
Best: [[15,19,9,10,16,30,25,17,31],
       [11,23,26,6,29,12,24,3,27],
       [7,5,4,14,18,22,8],
       [21,28,13,2,32,20]], fitness: 1275
